criptografia/Matematica/Implementacion/ExtraccionMinera.lp
\* Extracción_Minera *\
Minimize
Costos_Totales: 16 x_1 + 8 x_10 + 15 x_11 + 8 x_12 + 10 x_13 + 20 x_14
 + 6 x_15 + 17 x_16 + 6 x_17 + 20 x_18 + 5 x_19 + 6 x_2 + 8 x_20 + 25 x_21
 + 11 x_22 + 8 x_23 + 7 x_24 + 7 x_25 + 28 x_26 + 26 x_27 + 27 x_28 + 9 x_29
 + 11 x_3 + 24 x_30 + 15 x_31 + 14 x_32 + 22 x_33 + 20 x_34 + 19 x_35 + 8 x_36
 + 8 x_4 + 5 x_5 + 25 x_6 + 16 x_7 + 17 x_8 + 25 x_9
Subject To
Máximo_toneladas_de_extracción_de_la_zona_1: x_1 <= 189
Máximo_toneladas_de_extracción_de_la_zona_10: x_10 <= 122
Máximo_toneladas_de_extracción_de_la_zona_11: x_11 <= 146
Máximo_toneladas_de_extracción_de_la_zona_12: x_12 <= 190
Máximo_toneladas_de_extracción_de_la_zona_13: x_13 <= 160
Máximo_toneladas_de_extracción_de_la_zona_14: x_14 <= 109
Máximo_toneladas_de_extracción_de_la_zona_15: x_15 <= 133
Máximo_toneladas_de_extracción_de_la_zona_16: x_16 <= 198
Máximo_toneladas_de_extracción_de_la_zona_17: x_17 <= 138
Máximo_toneladas_de_extracción_de_la_zona_18: x_18 <= 107
Máximo_toneladas_de_extracción_de_la_zona_19: x_19 <= 117
Máximo_toneladas_de_extracción_de_la_zona_2: x_2 <= 196
Máximo_toneladas_de_extracción_de_la_zona_20: x_20 <= 150
Máximo_toneladas_de_extracción_de_la_zona_21: x_21 <= 171
Máximo_toneladas_de_extracción_de_la_zona_22: x_22 <= 103
Máximo_toneladas_de_extracción_de_la_zona_23: x_23 <= 157
Máximo_toneladas_de_extracción_de_la_zona_24: x_24 <= 143
Máximo_toneladas_de_extracción_de_la_zona_25: x_25 <= 170
Máximo_toneladas_de_extracción_de_la_zona_26: x_26 <= 130
Máximo_toneladas_de_extracción_de_la_zona_27: x_27 <= 140
Máximo_toneladas_de_extracción_de_la_zona_28: x_28 <= 126
Máximo_toneladas_de_extracción_de_la_zona_29: x_29 <= 180
Máximo_toneladas_de_extracción_de_la_zona_3: x_3 <= 143
Máximo_toneladas_de_extracción_de_la_zona_30: x_30 <= 153
Máximo_toneladas_de_extracción_de_la_zona_31: x_31 <= 108
Máximo_toneladas_de_extracción_de_la_zona_32: x_32 <= 132
Máximo_toneladas_de_extracción_de_la_zona_33: x_33 <= 105
Máximo_toneladas_de_extracción_de_la_zona_34: x_34 <= 145
Máximo_toneladas_de_extracción_de_la_zona_35: x_35 <= 145
Máximo_toneladas_de_extracción_de_la_zona_36: x_36 <= 114
Máximo_toneladas_de_extracción_de_la_zona_4: x_4 <= 136
Máximo_toneladas_de_extracción_de_la_zona_5: x_5 <= 106
Máximo_toneladas_de_extracción_de_la_zona_6: x_6 <= 151
Máximo_toneladas_de_extracción_de_la_zona_7: x_7 <= 170
Máximo_toneladas_de_extracción_de_la_zona_8: x_8 <= 129
Máximo_toneladas_de_extracción_de_la_zona_9: x_9 <= 184
Mínimo_toneladas_de_extracción_del_tipo_de_carbón_Antracita: x_10 + x_13
 + x_19 + x_22 + x_23 + x_24 + x_25 + x_34 + x_36 + x_9 >= 862
Mínimo_toneladas_de_extracción_del_tipo_de_carbón_Hulla: x_1 + x_11 + x_16
 + x_17 + x_2 + x_31 + x_33 + x_5 + x_7 + x_8 >= 898
Mínimo_toneladas_de_extracción_del_tipo_de_carbón_Lignito: x_20 + x_28 + x_29
 + x_30 + x_35 >= 742
Mínimo_toneladas_de_extracción_del_tipo_de_carbón_Turba: x_12 + x_14 + x_15
 + x_18 + x_21 + x_26 + x_27 + x_3 + x_32 + x_4 + x_6 >= 562
End
